(set-logic QF_NRA)
(set-info :source |Benchmarks generated from hycomp (https://es-static.fbk.eu/tools/hycomp/). BMC instances of non-linear hybrid automata taken from: Alessandro Cimatti, Sergio Mover, Stefano Tonetta, A quantifier-free SMT encoding of non-linear hybrid automata, FMCAD 2012 and Alessandro Cimatti, Sergio Mover, Stefano Tonetta, Quantier-free encoding of invariants for Hybrid Systems, Formal Methods in System Design. This instance solves a BMC problem of depth 1 and uses the quantifier free encoding with equivalences and lemmas encoding. Contacts: Sergio Mover (mover@fbk.eu), Stefano Tonetta (tonettas@fbk.eu), Alessandro Cimatti (cimatti@fbk.eu).|)
(set-info :smt-lib-version 2.0)
(set-info :category "industrial")
(set-info :status unsat)
;; MathSAT API call trace
;; generated on Mon Mar 19 10:37:32 2012
(declare-fun b.x__AT0 () Real)
(declare-fun b.speed_y__AT1 () Real)
(declare-fun b.delta__AT1 () Real)
(declare-fun b.bool_atom__AT0 () Bool)
(declare-fun b.y__AT0 () Real)
(declare-fun b.EVENT.1__AT1 () Bool)
(declare-fun b.EVENT.0__AT1 () Bool)
(declare-fun b.counter.0__AT0 () Bool)
(declare-fun b.delta__AT0 () Real)
(declare-fun b.counter.1__AT0 () Bool)
(declare-fun b.y__AT1 () Real)
(declare-fun b.EVENT.0__AT0 () Bool)
(declare-fun b.event_is_timed__AT0 () Bool)
(declare-fun b.speed_y__AT0 () Real)
(declare-fun b.speed_x__AT1 () Real)
(declare-fun b.EVENT.1__AT0 () Bool)
(declare-fun b.counter.3__AT0 () Bool)
(declare-fun b.time__AT1 () Real)
(declare-fun b.x__AT1 () Real)
(declare-fun b.event_is_timed__AT1 () Bool)
(declare-fun b.counter.0__AT1 () Bool)
(declare-fun b.speed_loss__AT0 () Real)
(declare-fun b.counter.1__AT1 () Bool)
(declare-fun b.speed_x__AT0 () Real)
(declare-fun b.counter.2__AT1 () Bool)
(declare-fun b.time__AT0 () Real)
(declare-fun b.counter.2__AT0 () Bool)
(declare-fun b.counter.3__AT1 () Bool)
(declare-fun b.bool_atom__AT1 () Bool)
(assert (let ((.def_587 (* (- 49.0) b.delta__AT1)))
(let ((.def_588 (* 5.0 b.speed_y__AT1)))
(let ((.def_590 (+ .def_588 .def_587)))
(let ((.def_603 (<= 0.0 .def_590)))
(let ((.def_604 (not .def_603)))
(let ((.def_601 (<= 0.0 b.speed_y__AT1)))
(let ((.def_618 (or .def_601 .def_604)))
(let ((.def_593 (<= b.speed_y__AT1 0.0 )))
(let ((.def_594 (not .def_593)))
(let ((.def_591 (<= .def_590 0.0 )))
(let ((.def_617 (or .def_591 .def_594)))
(let ((.def_619 (and .def_617 .def_618)))
(let ((.def_473 (* b.y__AT1 b.speed_y__AT1)))
(let ((.def_514 (* 2.0 .def_473)))
(let ((.def_515 (+ b.speed_x__AT1 .def_514)))
(let ((.def_528 (<= .def_515 0.0 )))
(let ((.def_614 (and .def_528 .def_603)))
(let ((.def_516 (<= 0.0 .def_515)))
(let ((.def_613 (and .def_516 .def_591)))
(let ((.def_615 (or .def_613 .def_614)))
(let ((.def_462 (* (- (/ 49 10)) b.speed_y__AT1)))
(let ((.def_491 (* 3.0 .def_462)))
(let ((.def_547 (* 2.0 .def_491)))
(let ((.def_548 (* b.delta__AT1 .def_547)))
(let ((.def_549 (* (- 50.0) .def_548)))
(let ((.def_457 (* b.delta__AT1 b.delta__AT1)))
(let ((.def_546 (* (- 7203.0) .def_457)))
(let ((.def_550 (+ .def_546 .def_549)))
(let ((.def_337 (* b.speed_y__AT1 b.speed_y__AT1)))
(let ((.def_551 (* (- 50.0) .def_337)))
(let ((.def_555 (+ .def_551 .def_550)))
(let ((.def_553 (* 490.0 b.y__AT1)))
(let ((.def_556 (+ .def_553 .def_555)))
(let ((.def_573 (<= 0.0 .def_556)))
(let ((.def_574 (not .def_573)))
(let ((.def_559 (* (- 5.0) .def_337)))
(let ((.def_560 (* 49.0 b.y__AT1)))
(let ((.def_562 (+ .def_560 .def_559)))
(let ((.def_571 (<= 0.0 .def_562)))
(let ((.def_608 (or .def_571 .def_574)))
(let ((.def_563 (<= .def_562 0.0 )))
(let ((.def_564 (not .def_563)))
(let ((.def_557 (<= .def_556 0.0 )))
(let ((.def_607 (or .def_557 .def_564)))
(let ((.def_609 (and .def_607 .def_608)))
(let ((.def_602 (not .def_601)))
(let ((.def_605 (or .def_602 .def_604)))
(let ((.def_606 (not .def_605)))
(let ((.def_610 (or .def_606 .def_609)))
(let ((.def_558 (not .def_557)))
(let ((.def_598 (or .def_558 .def_563)))
(let ((.def_572 (not .def_571)))
(let ((.def_597 (or .def_572 .def_573)))
(let ((.def_599 (and .def_597 .def_598)))
(let ((.def_592 (not .def_591)))
(let ((.def_595 (or .def_592 .def_594)))
(let ((.def_596 (not .def_595)))
(let ((.def_600 (or .def_596 .def_599)))
(let ((.def_611 (and .def_600 .def_610)))
(let ((.def_584 (and .def_528 .def_573)))
(let ((.def_583 (and .def_516 .def_557)))
(let ((.def_585 (or .def_583 .def_584)))
(let ((.def_469 (* (- (/ 49 10)) b.y__AT1)))
(let ((.def_499 (* 2.0 .def_469)))
(let ((.def_500 (* b.delta__AT1 .def_499)))
(let ((.def_501 (* 50.0 .def_500)))
(let ((.def_495 (* 2.0 .def_337)))
(let ((.def_496 (* b.delta__AT1 .def_495)))
(let ((.def_497 (* 25.0 .def_496)))
(let ((.def_507 (+ .def_497 .def_501)))
(let ((.def_492 (* .def_457 .def_491)))
(let ((.def_493 (* 50.0 .def_492)))
(let ((.def_508 (+ .def_493 .def_507)))
(let ((.def_503 (* 50.0 .def_473)))
(let ((.def_509 (+ .def_503 .def_508)))
(let ((.def_458 (* b.delta__AT1 .def_457)))
(let ((.def_490 (* 2401.0 .def_458)))
(let ((.def_510 (+ .def_490 .def_509)))
(let ((.def_505 (* 25.0 b.speed_x__AT1)))
(let ((.def_511 (+ .def_505 .def_510)))
(let ((.def_530 (<= .def_511 0.0 )))
(let ((.def_531 (not .def_530)))
(let ((.def_578 (or .def_528 .def_531)))
(let ((.def_517 (not .def_516)))
(let ((.def_512 (<= 0.0 .def_511)))
(let ((.def_577 (or .def_512 .def_517)))
(let ((.def_579 (and .def_577 .def_578)))
(let ((.def_575 (or .def_572 .def_574)))
(let ((.def_576 (not .def_575)))
(let ((.def_580 (or .def_576 .def_579)))
(let ((.def_513 (not .def_512)))
(let ((.def_568 (or .def_513 .def_516)))
(let ((.def_529 (not .def_528)))
(let ((.def_567 (or .def_529 .def_530)))
(let ((.def_569 (and .def_567 .def_568)))
(let ((.def_565 (or .def_558 .def_564)))
(let ((.def_566 (not .def_565)))
(let ((.def_570 (or .def_566 .def_569)))
(let ((.def_581 (and .def_570 .def_580)))
(let ((.def_543 (and .def_528 .def_530)))
(let ((.def_542 (and .def_512 .def_516)))
(let ((.def_544 (or .def_542 .def_543)))
(let ((.def_474 (* b.delta__AT1 .def_473)))
(let ((.def_475 (* 200.0 .def_474)))
(let ((.def_470 (* .def_457 .def_469)))
(let ((.def_471 (* 200.0 .def_470)))
(let ((.def_481 (+ .def_471 .def_475)))
(let ((.def_466 (* .def_337 .def_457)))
(let ((.def_467 (* 100.0 .def_466)))
(let ((.def_482 (+ .def_467 .def_481)))
(let ((.def_463 (* .def_458 .def_462)))
(let ((.def_464 (* 200.0 .def_463)))
(let ((.def_483 (+ .def_464 .def_482)))
(let ((.def_459 (* b.delta__AT1 .def_458)))
(let ((.def_460 (* 2401.0 .def_459)))
(let ((.def_484 (+ .def_460 .def_483)))
(let ((.def_455 (* b.speed_x__AT1 b.delta__AT1)))
(let ((.def_456 (* 100.0 .def_455)))
(let ((.def_485 (+ .def_456 .def_484)))
(let ((.def_443 (* b.y__AT1 b.y__AT1)))
(let ((.def_477 (* 100.0 .def_443)))
(let ((.def_486 (+ .def_477 .def_485)))
(let ((.def_479 (* 100.0 b.x__AT1)))
(let ((.def_487 (+ .def_479 .def_486)))
(let ((.def_522 (<= .def_487 0.0 )))
(let ((.def_536 (not .def_522)))
(let ((.def_444 (+ b.x__AT1 .def_443)))
(let ((.def_520 (<= .def_444 0.0 )))
(let ((.def_537 (or .def_520 .def_536)))
(let ((.def_445 (<= 0.0 .def_444)))
(let ((.def_534 (not .def_445)))
(let ((.def_488 (<= 0.0 .def_487)))
(let ((.def_535 (or .def_488 .def_534)))
(let ((.def_538 (and .def_535 .def_537)))
(let ((.def_532 (or .def_529 .def_531)))
(let ((.def_533 (not .def_532)))
(let ((.def_539 (or .def_533 .def_538)))
(let ((.def_524 (not .def_488)))
(let ((.def_525 (or .def_445 .def_524)))
(let ((.def_521 (not .def_520)))
(let ((.def_523 (or .def_521 .def_522)))
(let ((.def_526 (and .def_523 .def_525)))
(let ((.def_518 (or .def_513 .def_517)))
(let ((.def_519 (not .def_518)))
(let ((.def_527 (or .def_519 .def_526)))
(let ((.def_540 (and .def_527 .def_539)))
(let ((.def_489 (and .def_445 .def_488)))
(let ((.def_541 (and .def_489 .def_540)))
(let ((.def_545 (and .def_541 .def_544)))
(let ((.def_582 (and .def_545 .def_581)))
(let ((.def_586 (and .def_582 .def_585)))
(let ((.def_612 (and .def_586 .def_611)))
(let ((.def_616 (and .def_612 .def_615)))
(let ((.def_620 (and .def_616 .def_619)))
(let ((.def_67 (<= b.speed_loss__AT0 (/ 1 2))))
(let ((.def_64 (<= (/ 1 10) b.speed_loss__AT0)))
(let ((.def_68 (and .def_64 .def_67)))
(let ((.def_621 (and .def_68 .def_620)))
(let ((.def_37 (not b.counter.0__AT0)))
(let ((.def_449 (or b.counter.1__AT0 .def_37)))
(let ((.def_40 (not b.counter.2__AT0)))
(let ((.def_450 (or .def_40 .def_449)))
(let ((.def_451 (or b.counter.3__AT0 .def_450)))
(let ((.def_446 (and .def_68 .def_445)))
(let ((.def_440 (not b.EVENT.0__AT1)))
(let ((.def_438 (not b.EVENT.1__AT1)))
(let ((.def_441 (or .def_438 .def_440)))
(let ((.def_343 (not b.counter.1__AT1)))
(let ((.def_4 (not b.counter.0__AT1)))
(let ((.def_431 (or .def_4 .def_343)))
(let ((.def_435 (or b.counter.3__AT1 .def_431)))
(let ((.def_432 (or b.counter.2__AT1 .def_431)))
(let ((.def_8 (not b.counter.2__AT1)))
(let ((.def_430 (or .def_4 .def_8)))
(let ((.def_433 (and .def_430 .def_432)))
(let ((.def_360 (not b.counter.3__AT1)))
(let ((.def_434 (or .def_360 .def_433)))
(let ((.def_436 (and .def_434 .def_435)))
(let ((.def_442 (and .def_436 .def_441)))
(let ((.def_447 (and .def_442 .def_446)))
(let ((.def_425 (<= 0.0 b.delta__AT0)))
(let ((.def_56 (not b.EVENT.0__AT0)))
(let ((.def_54 (not b.EVENT.1__AT0)))
(let ((.def_260 (and .def_54 .def_56)))
(let ((.def_262 (not .def_260)))
(let ((.def_426 (or .def_262 .def_425)))
(let ((.def_427 (or b.EVENT.1__AT0 .def_426)))
(let ((.def_302 (= b.bool_atom__AT0 b.bool_atom__AT1)))
(let ((.def_297 (= b.counter.0__AT1 b.counter.0__AT0)))
(let ((.def_295 (= b.counter.1__AT1 b.counter.1__AT0)))
(let ((.def_293 (= b.counter.2__AT1 b.counter.2__AT0)))
(let ((.def_292 (= b.counter.3__AT1 b.counter.3__AT0)))
(let ((.def_294 (and .def_292 .def_293)))
(let ((.def_296 (and .def_294 .def_295)))
(let ((.def_298 (and .def_296 .def_297)))
(let ((.def_421 (and .def_298 .def_302)))
(let ((.def_422 (or .def_262 .def_421)))
(let ((.def_423 (or b.EVENT.1__AT0 .def_422)))
(let ((.def_403 (* b.speed_y__AT0 b.delta__AT0)))
(let ((.def_404 (* 10.0 .def_403)))
(let ((.def_408 (* (- 10.0) b.y__AT1)))
(let ((.def_412 (+ .def_408 .def_404)))
(let ((.def_77 (* b.delta__AT0 b.delta__AT0)))
(let ((.def_405 (* (- 49.0) .def_77)))
(let ((.def_413 (+ .def_405 .def_412)))
(let ((.def_410 (* 10.0 b.y__AT0)))
(let ((.def_414 (+ .def_410 .def_413)))
(let ((.def_415 (= .def_414 0.0 )))
(let ((.def_398 (* (- 5.0) b.speed_y__AT1)))
(let ((.def_224 (* (- 49.0) b.delta__AT0)))
(let ((.def_399 (+ .def_224 .def_398)))
(let ((.def_225 (* 5.0 b.speed_y__AT0)))
(let ((.def_400 (+ .def_225 .def_399)))
(let ((.def_401 (= .def_400 0.0 )))
(let ((.def_394 (* (- 1.0) b.x__AT1)))
(let ((.def_74 (* b.speed_x__AT0 b.delta__AT0)))
(let ((.def_395 (+ .def_74 .def_394)))
(let ((.def_396 (+ b.x__AT0 .def_395)))
(let ((.def_397 (= .def_396 0.0 )))
(let ((.def_402 (and .def_397 .def_401)))
(let ((.def_416 (and .def_402 .def_415)))
(let ((.def_287 (= b.speed_x__AT0 b.speed_x__AT1)))
(let ((.def_417 (and .def_287 .def_416)))
(let ((.def_418 (or .def_262 .def_417)))
(let ((.def_284 (= b.y__AT0 b.y__AT1)))
(let ((.def_281 (= b.x__AT0 b.x__AT1)))
(let ((.def_388 (and .def_281 .def_284)))
(let ((.def_389 (and .def_287 .def_388)))
(let ((.def_290 (= b.speed_y__AT0 b.speed_y__AT1)))
(let ((.def_390 (and .def_290 .def_389)))
(let ((.def_385 (= b.delta__AT0 0.0 )))
(let ((.def_386 (and .def_260 .def_385)))
(let ((.def_387 (not .def_386)))
(let ((.def_391 (or .def_387 .def_390)))
(let ((.def_392 (or b.EVENT.1__AT0 .def_391)))
(let ((.def_377 (and .def_287 .def_290)))
(let ((.def_378 (and .def_298 .def_377)))
(let ((.def_379 (or b.bool_atom__AT0 .def_378)))
(let ((.def_352 (or .def_4 b.counter.0__AT0)))
(let ((.def_351 (or b.counter.0__AT1 .def_37)))
(let ((.def_353 (and .def_351 .def_352)))
(let ((.def_354 (and .def_343 .def_353)))
(let ((.def_355 (or b.counter.1__AT0 .def_354)))
(let ((.def_35 (not b.counter.1__AT0)))
(let ((.def_350 (or b.counter.1__AT1 .def_35)))
(let ((.def_356 (and .def_350 .def_355)))
(let ((.def_368 (and .def_8 .def_356)))
(let ((.def_369 (or b.counter.2__AT0 .def_368)))
(let ((.def_363 (and .def_37 .def_343)))
(let ((.def_364 (or b.counter.1__AT0 .def_363)))
(let ((.def_365 (and .def_350 .def_364)))
(let ((.def_366 (and b.counter.2__AT1 .def_365)))
(let ((.def_367 (or .def_40 .def_366)))
(let ((.def_370 (and .def_367 .def_369)))
(let ((.def_371 (and b.counter.3__AT1 .def_370)))
(let ((.def_372 (or b.counter.3__AT0 .def_371)))
(let ((.def_357 (and b.counter.2__AT1 .def_356)))
(let ((.def_358 (or b.counter.2__AT0 .def_357)))
(let ((.def_346 (or b.counter.1__AT1 b.counter.1__AT0)))
(let ((.def_344 (and b.counter.0__AT1 .def_343)))
(let ((.def_345 (or .def_35 .def_344)))
(let ((.def_347 (and .def_345 .def_346)))
(let ((.def_348 (and .def_8 .def_347)))
(let ((.def_349 (or .def_40 .def_348)))
(let ((.def_359 (and .def_349 .def_358)))
(let ((.def_361 (and .def_359 .def_360)))
(let ((.def_43 (not b.counter.3__AT0)))
(let ((.def_362 (or .def_43 .def_361)))
(let ((.def_373 (and .def_362 .def_372)))
(let ((.def_332 (* b.speed_x__AT0 b.speed_x__AT0)))
(let ((.def_91 (* b.speed_y__AT0 b.speed_y__AT0)))
(let ((.def_333 (+ .def_91 .def_332)))
(let ((.def_318 (* (- 1.0) b.speed_loss__AT0)))
(let ((.def_319 (+ 1.0 .def_318)))
(let ((.def_331 (* .def_319 .def_319)))
(let ((.def_334 (* .def_331 .def_333)))
(let ((.def_335 (* (- 1.0) .def_334)))
(let ((.def_339 (+ .def_335 .def_337)))
(let ((.def_330 (* b.speed_x__AT1 b.speed_x__AT1)))
(let ((.def_340 (+ .def_330 .def_339)))
(let ((.def_341 (= .def_340 0.0 )))
(let ((.def_308 (* 2.0 b.y__AT0)))
(let ((.def_322 (* .def_308 .def_319)))
(let ((.def_323 (* b.speed_y__AT0 .def_322)))
(let ((.def_320 (* b.speed_x__AT0 .def_319)))
(let ((.def_326 (+ .def_320 .def_323)))
(let ((.def_316 (* 2.0 b.y__AT1)))
(let ((.def_317 (* b.speed_y__AT1 .def_316)))
(let ((.def_327 (+ .def_317 .def_326)))
(let ((.def_328 (+ b.speed_x__AT1 .def_327)))
(let ((.def_329 (= .def_328 0.0 )))
(let ((.def_342 (and .def_329 .def_341)))
(let ((.def_374 (and .def_342 .def_373)))
(let ((.def_315 (not b.bool_atom__AT0)))
(let ((.def_375 (or .def_315 .def_374)))
(let ((.def_309 (* b.speed_y__AT0 .def_308)))
(let ((.def_310 (+ b.speed_x__AT0 .def_309)))
(let ((.def_311 (<= 0.0 .def_310)))
(let ((.def_312 (not .def_311)))
(let ((.def_59 (* b.y__AT0 b.y__AT0)))
(let ((.def_60 (+ b.x__AT0 .def_59)))
(let ((.def_307 (= .def_60 0.0 )))
(let ((.def_313 (and .def_307 .def_312)))
(let ((.def_314 (= b.bool_atom__AT0 .def_313)))
(let ((.def_376 (and .def_314 .def_375)))
(let ((.def_380 (and .def_376 .def_379)))
(let ((.def_381 (and .def_281 .def_380)))
(let ((.def_382 (and .def_284 .def_381)))
(let ((.def_383 (or .def_260 .def_382)))
(let ((.def_384 (or b.EVENT.1__AT0 .def_383)))
(let ((.def_393 (and .def_384 .def_392)))
(let ((.def_419 (and .def_393 .def_418)))
(let ((.def_267 (= b.time__AT0 b.time__AT1)))
(let ((.def_282 (and .def_267 .def_281)))
(let ((.def_285 (and .def_282 .def_284)))
(let ((.def_288 (and .def_285 .def_287)))
(let ((.def_291 (and .def_288 .def_290)))
(let ((.def_299 (and .def_291 .def_298)))
(let ((.def_303 (and .def_299 .def_302)))
(let ((.def_304 (or .def_54 .def_303)))
(let ((.def_271 (* (- 1.0) b.time__AT1)))
(let ((.def_274 (+ b.delta__AT0 .def_271)))
(let ((.def_275 (+ b.time__AT0 .def_274)))
(let ((.def_276 (= .def_275 0.0 )))
(let ((.def_277 (or .def_262 .def_276)))
(let ((.def_278 (or b.EVENT.1__AT0 .def_277)))
(let ((.def_268 (or .def_260 .def_267)))
(let ((.def_269 (or b.EVENT.1__AT0 .def_268)))
(let ((.def_279 (and .def_269 .def_278)))
(let ((.def_305 (and .def_279 .def_304)))
(let ((.def_264 (= .def_262 b.event_is_timed__AT1)))
(let ((.def_261 (= b.event_is_timed__AT0 .def_260)))
(let ((.def_265 (and .def_261 .def_264)))
(let ((.def_306 (and .def_265 .def_305)))
(let ((.def_420 (and .def_306 .def_419)))
(let ((.def_424 (and .def_420 .def_423)))
(let ((.def_428 (and .def_424 .def_427)))
(let ((.def_429 (and .def_54 .def_428)))
(let ((.def_448 (and .def_429 .def_447)))
(let ((.def_452 (and .def_448 .def_451)))
(let ((.def_227 (+ .def_225 .def_224)))
(let ((.def_240 (<= 0.0 .def_227)))
(let ((.def_241 (not .def_240)))
(let ((.def_238 (<= 0.0 b.speed_y__AT0)))
(let ((.def_255 (or .def_238 .def_241)))
(let ((.def_230 (<= b.speed_y__AT0 0.0 )))
(let ((.def_231 (not .def_230)))
(let ((.def_228 (<= .def_227 0.0 )))
(let ((.def_254 (or .def_228 .def_231)))
(let ((.def_256 (and .def_254 .def_255)))
(let ((.def_99 (* b.y__AT0 b.speed_y__AT0)))
(let ((.def_143 (* 2.0 .def_99)))
(let ((.def_144 (+ b.speed_x__AT0 .def_143)))
(let ((.def_157 (<= .def_144 0.0 )))
(let ((.def_251 (and .def_157 .def_240)))
(let ((.def_145 (<= 0.0 .def_144)))
(let ((.def_250 (and .def_145 .def_228)))
(let ((.def_252 (or .def_250 .def_251)))
(let ((.def_86 (* (- (/ 49 10)) b.speed_y__AT0)))
(let ((.def_118 (* 3.0 .def_86)))
(let ((.def_178 (* 2.0 .def_118)))
(let ((.def_179 (* b.delta__AT0 .def_178)))
(let ((.def_181 (* (- 50.0) .def_179)))
(let ((.def_183 (* (- 50.0) .def_91)))
(let ((.def_188 (+ .def_183 .def_181)))
(let ((.def_177 (* (- 7203.0) .def_77)))
(let ((.def_189 (+ .def_177 .def_188)))
(let ((.def_186 (* 490.0 b.y__AT0)))
(let ((.def_190 (+ .def_186 .def_189)))
(let ((.def_209 (<= 0.0 .def_190)))
(let ((.def_210 (not .def_209)))
(let ((.def_195 (* (- 5.0) .def_91)))
(let ((.def_196 (* 49.0 b.y__AT0)))
(let ((.def_198 (+ .def_196 .def_195)))
(let ((.def_207 (<= 0.0 .def_198)))
(let ((.def_245 (or .def_207 .def_210)))
(let ((.def_199 (<= .def_198 0.0 )))
(let ((.def_200 (not .def_199)))
(let ((.def_191 (<= .def_190 0.0 )))
(let ((.def_244 (or .def_191 .def_200)))
(let ((.def_246 (and .def_244 .def_245)))
(let ((.def_239 (not .def_238)))
(let ((.def_242 (or .def_239 .def_241)))
(let ((.def_243 (not .def_242)))
(let ((.def_247 (or .def_243 .def_246)))
(let ((.def_192 (not .def_191)))
(let ((.def_235 (or .def_192 .def_199)))
(let ((.def_208 (not .def_207)))
(let ((.def_234 (or .def_208 .def_209)))
(let ((.def_236 (and .def_234 .def_235)))
(let ((.def_229 (not .def_228)))
(let ((.def_232 (or .def_229 .def_231)))
(let ((.def_233 (not .def_232)))
(let ((.def_237 (or .def_233 .def_236)))
(let ((.def_248 (and .def_237 .def_247)))
(let ((.def_220 (and .def_157 .def_209)))
(let ((.def_219 (and .def_145 .def_191)))
(let ((.def_221 (or .def_219 .def_220)))
(let ((.def_95 (* (- (/ 49 10)) b.y__AT0)))
(let ((.def_128 (* 2.0 .def_95)))
(let ((.def_129 (* b.delta__AT0 .def_128)))
(let ((.def_130 (* 50.0 .def_129)))
(let ((.def_123 (* 2.0 .def_91)))
(let ((.def_124 (* b.delta__AT0 .def_123)))
(let ((.def_126 (* 25.0 .def_124)))
(let ((.def_136 (+ .def_126 .def_130)))
(let ((.def_119 (* .def_77 .def_118)))
(let ((.def_121 (* 50.0 .def_119)))
(let ((.def_137 (+ .def_121 .def_136)))
(let ((.def_132 (* 50.0 .def_99)))
(let ((.def_138 (+ .def_132 .def_137)))
(let ((.def_78 (* b.delta__AT0 .def_77)))
(let ((.def_116 (* 2401.0 .def_78)))
(let ((.def_139 (+ .def_116 .def_138)))
(let ((.def_134 (* 25.0 b.speed_x__AT0)))
(let ((.def_140 (+ .def_134 .def_139)))
(let ((.def_159 (<= .def_140 0.0 )))
(let ((.def_160 (not .def_159)))
(let ((.def_214 (or .def_157 .def_160)))
(let ((.def_146 (not .def_145)))
(let ((.def_141 (<= 0.0 .def_140)))
(let ((.def_213 (or .def_141 .def_146)))
(let ((.def_215 (and .def_213 .def_214)))
(let ((.def_211 (or .def_208 .def_210)))
(let ((.def_212 (not .def_211)))
(let ((.def_216 (or .def_212 .def_215)))
(let ((.def_142 (not .def_141)))
(let ((.def_204 (or .def_142 .def_145)))
(let ((.def_158 (not .def_157)))
(let ((.def_203 (or .def_158 .def_159)))
(let ((.def_205 (and .def_203 .def_204)))
(let ((.def_201 (or .def_192 .def_200)))
(let ((.def_202 (not .def_201)))
(let ((.def_206 (or .def_202 .def_205)))
(let ((.def_217 (and .def_206 .def_216)))
(let ((.def_172 (and .def_157 .def_159)))
(let ((.def_171 (and .def_141 .def_145)))
(let ((.def_173 (or .def_171 .def_172)))
(let ((.def_100 (* b.delta__AT0 .def_99)))
(let ((.def_101 (* 200.0 .def_100)))
(let ((.def_96 (* .def_77 .def_95)))
(let ((.def_97 (* 200.0 .def_96)))
(let ((.def_107 (+ .def_97 .def_101)))
(let ((.def_92 (* .def_77 .def_91)))
(let ((.def_93 (* 100.0 .def_92)))
(let ((.def_108 (+ .def_93 .def_107)))
(let ((.def_87 (* .def_78 .def_86)))
(let ((.def_89 (* 200.0 .def_87)))
(let ((.def_109 (+ .def_89 .def_108)))
(let ((.def_79 (* b.delta__AT0 .def_78)))
(let ((.def_81 (* 2401.0 .def_79)))
(let ((.def_110 (+ .def_81 .def_109)))
(let ((.def_76 (* 100.0 .def_74)))
(let ((.def_111 (+ .def_76 .def_110)))
(let ((.def_103 (* 100.0 .def_59)))
(let ((.def_112 (+ .def_103 .def_111)))
(let ((.def_105 (* 100.0 b.x__AT0)))
(let ((.def_113 (+ .def_105 .def_112)))
(let ((.def_151 (<= .def_113 0.0 )))
(let ((.def_165 (not .def_151)))
(let ((.def_149 (<= .def_60 0.0 )))
(let ((.def_166 (or .def_149 .def_165)))
(let ((.def_61 (<= 0.0 .def_60)))
(let ((.def_163 (not .def_61)))
(let ((.def_114 (<= 0.0 .def_113)))
(let ((.def_164 (or .def_114 .def_163)))
(let ((.def_167 (and .def_164 .def_166)))
(let ((.def_161 (or .def_158 .def_160)))
(let ((.def_162 (not .def_161)))
(let ((.def_168 (or .def_162 .def_167)))
(let ((.def_153 (not .def_114)))
(let ((.def_154 (or .def_61 .def_153)))
(let ((.def_150 (not .def_149)))
(let ((.def_152 (or .def_150 .def_151)))
(let ((.def_155 (and .def_152 .def_154)))
(let ((.def_147 (or .def_142 .def_146)))
(let ((.def_148 (not .def_147)))
(let ((.def_156 (or .def_148 .def_155)))
(let ((.def_169 (and .def_156 .def_168)))
(let ((.def_115 (and .def_61 .def_114)))
(let ((.def_170 (and .def_115 .def_169)))
(let ((.def_174 (and .def_170 .def_173)))
(let ((.def_218 (and .def_174 .def_217)))
(let ((.def_222 (and .def_218 .def_221)))
(let ((.def_249 (and .def_222 .def_248)))
(let ((.def_253 (and .def_249 .def_252)))
(let ((.def_257 (and .def_253 .def_256)))
(let ((.def_258 (and .def_68 .def_257)))
(let ((.def_69 (and .def_61 .def_68)))
(let ((.def_57 (or .def_54 .def_56)))
(let ((.def_47 (or .def_35 .def_37)))
(let ((.def_51 (or b.counter.3__AT0 .def_47)))
(let ((.def_48 (or b.counter.2__AT0 .def_47)))
(let ((.def_46 (or .def_37 .def_40)))
(let ((.def_49 (and .def_46 .def_48)))
(let ((.def_50 (or .def_43 .def_49)))
(let ((.def_52 (and .def_50 .def_51)))
(let ((.def_58 (and .def_52 .def_57)))
(let ((.def_70 (and .def_58 .def_69)))
(let ((.def_38 (and .def_35 .def_37)))
(let ((.def_41 (and .def_38 .def_40)))
(let ((.def_44 (and .def_41 .def_43)))
(let ((.def_32 (= b.speed_y__AT0 1.0 )))
(let ((.def_29 (= b.speed_x__AT0 1.0 )))
(let ((.def_25 (= b.y__AT0 10.0 )))
(let ((.def_21 (= b.x__AT0 (- 9.0) )))
(let ((.def_15 (= b.time__AT0 0.0 )))
(let ((.def_17 (and .def_15 b.event_is_timed__AT0)))
(let ((.def_22 (and .def_17 .def_21)))
(let ((.def_26 (and .def_22 .def_25)))
(let ((.def_30 (and .def_26 .def_29)))
(let ((.def_33 (and .def_30 .def_32)))
(let ((.def_45 (and .def_33 .def_44)))
(let ((.def_71 (and .def_45 .def_70)))
(let ((.def_6 (or .def_4 b.counter.1__AT1)))
(let ((.def_9 (or .def_6 .def_8)))
(let ((.def_11 (or .def_9 b.counter.3__AT1)))
(let ((.def_12 (not .def_11)))
(let ((.def_72 (and .def_12 .def_71)))
(let ((.def_259 (and .def_72 .def_258)))
(let ((.def_453 (and .def_259 .def_452)))
(let ((.def_622 (and .def_453 .def_621)))
.def_622)))))))))))))))))))))))))))))))))))))))))))))))))))))))))))))))))))))))))))))))))))))))))))))))))))))))))))))))))))))))))))))))))))))))))))))))))))))))))))))))))))))))))))))))))))))))))))))))))))))))))))))))))))))))))))))))))))))))))))))))))))))))))))))))))))))))))))))))))))))))))))))))))))))))))))))))))))))))))))))))))))))))))))))))))))))))))))))))))))))))))))))))))))))))))))))))))))))))))))))))))))))))))))))))))))))))))))))))))))))))))))))))))))))))))))))))))))))))))))))))))))))))))))))))))))))))))))))))))))))))))))
(check-sat)
(exit)
